Route #1: 57 37 12 32 42 45 49 28 31 53 30 14
Route #2: 46 40 4 21
Route #3: 6 34 24 5 48 36 58 55 19 7 15 52
Route #4: 41
Route #5: 26 39 17 29
Route #6: 33 25 18
Route #7: 20 3 11 44 23
Route #8: 35 50 10 54 43 56
Route #9: 16 2 1 22 9 51 47
Route #10: 38 59 27 8 13

Cost: 1860.9702396408425
